
Gurobi 6.5.2 (win64) logging started 08/12/16 04:31:26

Optimize a model with 31928 rows, 23360 columns and 103087 nonzeros
Coefficient statistics:
  Matrix range    [1e+00, 1e+00]
  Objective range [3e+01, 4e+03]
  Bounds range    [1e+00, 1e+00]
  RHS range       [1e+00, 1e+00]
Found heuristic solution: objective 920.666
Variable types: 0 continuous, 23360 integer (23360 binary)

Root relaxation: objective -9.948386e+05, 6901 iterations, 0.08 seconds

    Nodes    |    Current Node    |     Objective Bounds      |     Work
 Expl Unexpl |  Obj  Depth IntInf | Incumbent    BestBd   Gap | It/Node Time

     0     0 -994838.57    0  361  920.66638 -994838.57      -     -    0s
H    0     0                    -922524.6151 -994838.57  7.84%     -    0s
H    0     0                    -942277.4491 -994838.57  5.58%     -    0s
H    0     0                    -968296.4389 -994838.57  2.74%     -    0s
     0     0 -991689.69    0   86 -968296.44 -991689.69  2.42%     -    0s
H    0     0                    -985739.3703 -991689.69  0.60%     -    0s
H    0     0                    -990863.4916 -991689.69  0.08%     -    0s
H    0     0                    -991254.7053 -991689.69  0.04%     -    0s
     0     0 -991306.63    0    9 -991254.71 -991306.63  0.01%     -    0s

Cutting planes:
  Gomory: 45
  Implied bound: 1
  Clique: 31
  Zero half: 3

Explored 0 nodes (8205 simplex iterations) in 0.93 seconds
Thread count was 12 (of 12 available processors)

Optimal solution found (tolerance 1.00e-04)
Best objective -9.912547052872e+05, best bound -9.913066255480e+05, gap 0.0052%
Obj: -991254.7052872448